885.96,42.5,48.54
846.78,44.47,50.78
864.61,43.55,49.74
895.92,42.03,48.0
895.93,42.03,48.0
688.42,54.69,62.47
792.35,47.52,54.27
776.84,48.47,55.36
976.12,38.58,44.06
723.92,52.01,59.4
830.64,45.33,51.77
871.87,43.19,49.32
891.43,42.24,48.24
834.24,45.13,51.55
891.96,42.21,48.21
872.1,43.18,49.31
801.2,47.0,53.67
878.57,42.86,48.95
995.0,37.84,43.22
973.04,38.7,44.2
